(set-logic BV)
(synth-fun f ((x Bool) (y Bool)) Bool
  ((Start Bool))
  (
   (Start Bool (
     x
     y
;      true
;      false
     (and Start Start)
     (not Start)
     (or Start Start)
     (xor Start Start)
   ))
))
(check-synth)
